20 15
12 9 8 7 6 10 5 11 4 9 6 8 7 5 10
5 0 1 2 3 4
5 3 4 5 6 7
5 6 7 8 9 10
5 9 10 11 12 13
5 12 13 14 15 16
5 15 16 17 18 19
4 0 5 10 15
4 1 6 11 16
4 2 7 12 17
4 3 8 13 18
4 4 9 14 19
6 0 2 4 6 8 10
6 1 3 5 7 9 11
6 8 10 12 14 16 18
6 9 11 13 15 17 19